POSCAR file written by OVITO Basic 3.10.4
1.0
       73.7272872925         0.0000000000         0.0000000000
        0.0000000000         4.2731413841         0.0000000000
        0.0000000000         0.0000000000       100.0000000000
    C
  144
Direct
     0.465945721         0.166666895         0.284893364
     0.498743653         0.166666895         0.289739102
     0.189677283         0.166666895         0.110298648
     0.175384790         0.666666925         0.103889212
     0.203536302         0.666666925         0.117206387
     0.189677134         0.500000000         0.110299058
     0.175384969         0.000000000         0.103888869
     0.203535214         0.000000000         0.117206603
     0.216940120         0.166666895         0.124584593
     0.242374539         0.166666895         0.140599519
     0.229883388         0.666666925         0.132397801
     0.216940790         0.500000000         0.124584705
     0.242374659         0.500000000         0.140600041
     0.229883358         0.000000000         0.132396817
     0.254439563         0.666666925         0.149141714
     0.254438370         0.000000000         0.149142042
     0.266120374         0.166666895         0.157966956
     0.266120583         0.500000000         0.157967627
     0.288597316         0.166666895         0.176230162
     0.277481675         0.666666925         0.167016894
     0.288597316         0.500000000         0.176229894
     0.277481377         0.000000000         0.167016551
     0.299548388         0.666666925         0.185549855
     0.299549013         0.000000000         0.185550079
     0.310410589         0.166666895         0.194926098
     0.321269840         0.666666925         0.204303443
     0.310410738         0.500000000         0.194925755
     0.321270049         0.000000000         0.204303801
     0.332224876         0.166666895         0.213621244
     0.343385845         0.666666925         0.222805053
     0.332224190         0.500000000         0.213621005
     0.343386889         0.000000000         0.222804919
     0.366783202         0.000000000         0.240430921
     0.379202187         0.500000000         0.248693764
     0.354872406         0.500000000         0.231770635
     0.366782963         0.666666925         0.240430295
     0.379203141         0.166666895         0.248693585
     0.354871899         0.166666895         0.231771216
     0.392188579         0.000000000         0.256471664
     0.405770153         0.500000000         0.263676107
     0.392188668         0.666666925         0.256471217
     0.405770719         0.166666895         0.263676465
     0.434752762         0.500000000         0.275989085
     0.434752852         0.166666895         0.275988787
     0.419963092         0.000000000         0.270213783
     0.419962555         0.666666925         0.270213813
     0.482197016         0.000000000         0.287857056
     0.498744726         0.500000000         0.289738506
     0.465945959         0.500000000         0.284894049
     0.482197642         0.666666925         0.287857354
     0.450101137         0.000000000         0.280911356
     0.450101644         0.666666925         0.280911088
     0.032231465         0.166666895         0.073059179
     0.015502849         0.666666925         0.072868086
     0.048919749         0.666666925         0.073914148
     0.032230739         0.500000000         0.073058583
     0.015503460         0.000000000         0.072868027
     0.048920169         0.000000000         0.073914386
     0.065521672         0.166666895         0.075435020
     0.098270498         0.166666895         0.080442347
     0.081986830         0.666666925         0.077613808
     0.065520957         0.500000000         0.075435616
     0.098270297         0.500000000         0.080441810
     0.081987269         0.000000000         0.077614345
     0.130110055         0.166666895         0.087998606
     0.114326589         0.666666925         0.083907999
     0.145573691         0.666666925         0.092707016
     0.130109861         0.500000000         0.087999143
     0.114326790         0.000000000         0.083907522
     0.145573437         0.000000000         0.092706896
     0.160674915         0.166666895         0.098013975
     0.160676107         0.500000000         0.098013259
     0.790381551         0.166666895         0.143917501
     0.790381193         0.500000000         0.143917367
     0.815481484         0.166666895         0.127620116
     0.802708864         0.666666925         0.135582447
     0.828715026         0.666666925         0.120074652
     0.815482259         0.500000000         0.127619609
     0.802708089         0.000000000         0.135582030
     0.828714907         0.000000000         0.120075651
     0.842402935         0.166666895         0.112985857
     0.842404306         0.500000000         0.112986580
     0.871083498         0.166666895         0.100297339
     0.856534302         0.666666925         0.106384695
     0.871083319         0.500000000         0.100296073
     0.856533885         0.000000000         0.106384926
     0.733690917         0.666666925         0.189205468
     0.733690739         0.000000000         0.189205289
     0.766915381         0.166666895         0.161488742
     0.778467357         0.666666925         0.152571648
     0.766915977         0.500000000         0.161489129
     0.778468013         0.000000000         0.152572364
     0.744603276         0.166666895         0.179861620
     0.755652130         0.666666925         0.170604661
     0.744602084         0.500000000         0.179860622
     0.755651832         0.000000000         0.170604348
     0.722836614         0.166666895         0.198586121
     0.711948335         0.666666925         0.207946479
     0.722837090         0.500000000         0.198587120
     0.711948633         0.000000000         0.207945943
     0.700915515         0.166666895         0.217213213
     0.689625204         0.666666925         0.226311490
     0.700914323         0.500000000         0.217213064
     0.689625680         0.000000000         0.226311281
     0.640027761         0.000000000         0.259330541
     0.653234005         0.500000000         0.251756310
     0.665865541         0.666666925         0.243668467
     0.665866315         0.000000000         0.243668437
     0.626214445         0.166666895         0.266294628
     0.626215219         0.500000000         0.266295075
     0.653234720         0.166666895         0.251756579
     0.640027165         0.666666925         0.259330273
     0.677973866         0.166666895         0.235158533
     0.677974045         0.500000000         0.235159591
     0.548816323         0.000000000         0.288693488
     0.515454948         0.000000000         0.290504903
     0.532191694         0.500000000         0.290154070
     0.548817277         0.666666925         0.288693428
     0.515455306         0.666666925         0.290505260
     0.532191277         0.166666895         0.290154189
     0.581218719         0.000000000         0.282564491
     0.596774697         0.500000000         0.278005451
     0.565199494         0.500000000         0.286149353
     0.581218779         0.666666925         0.282564521
     0.596774817         0.166666895         0.278005779
     0.565198839         0.166666895         0.286149800
     0.611790299         0.666666925         0.272552133
     0.611789525         0.000000000         0.272551984
     0.886029184         0.666666925         0.094753005
     0.886028349         0.000000000         0.094752885
     0.901347458         0.166666895         0.089793004
     0.932962000         0.166666895         0.081738330
     0.917005301         0.666666925         0.085447706
     0.901347578         0.500000000         0.089793541
     0.932961464         0.500000000         0.081738092
     0.917005539         0.000000000         0.085447945
     0.998785794         0.500000000         0.073339976
     0.998785913         0.166666895         0.073339142
     0.965570629         0.166666895         0.076244749
     0.949167311         0.666666925         0.078670420
     0.982126474         0.666666925         0.074466623
     0.965570807         0.500000000         0.076244272
     0.949166894         0.000000000         0.078669704
     0.982126832         0.000000000         0.074466921
